
units         real

atom_style      full
pair_style      lj/charmm/coul/long 8.0 10.0
bond_style      harmonic
angle_style     charmm
dihedral_style  charmm
improper_style  harmonic
kspace_style    ewald 0.001

neighbor        7.0 bin
 
region rfull block  -50 50 -50 50  -50 50 
region cation block  -45 0 -50 50  -50 50  
region anion block  5 50 -50 50   -50 50 

lattice fcc 12.  

create_box 2 rfull

pair_coeff   * *  0.28 3. 

create_atoms 1 region cation  
create_atoms 2 region anion 

set type 1 charge -1. 
set type 2 charge 1.

mass 1 39.948 
mass 2 39.948 

# comm_style brick
# comm_style tiled

velocity all create 87.3 102486 mom yes rot no dist gaussian

thermo_style    custom step density pe ke epair temp press
thermo        1000

fix  0 all nvt temp 87.3 87.3 8.
dump 1 all xyz 50 charged.xyz 
dump_modify 1 element C O 
run 1000
run 5000 

